r = [
0,11,68,76,27,44,77,16,81,71,28,0
];
p = [
0,24,19,29,13,1,29,25,2,11,21,0
];
e = [
0,10,5,3,17,18,13,12,3,10,18,0
];
d = [
0,116,160,197,108,105,169,105,169,174,124,212
];
d_bar = [
0,128,170,212,115,106,184,118,170,180,135,212
];
w = [
0,0.833333333,0.5,0.2,2.428571429,18,0.866666667,0.923076923,3,1.666666667,1.636363636,0
];
